interdiction/MCDM/NO_CORR/GEN_FROM_60/17_ITEMS_1000_GEN/K5017W02.KNP.mps
NAME          BLANK   
ROWS
 N  OBJROW
 L  R0000000
COLUMNS
    C0000000  OBJROW     -793.         R0000000  27.         
    C0000001  OBJROW     -720.         R0000000  807.        
    C0000002  OBJROW     -286.         R0000000  369.        
    C0000003  OBJROW     -540.         R0000000  409.        
    C0000004  OBJROW     -755.         R0000000  602.        
    C0000005  OBJROW     -848.         R0000000  719.        
    C0000006  OBJROW     -522.         R0000000  720.        
    C0000007  OBJROW     -225.         R0000000  417.        
    C0000008  OBJROW     -927.         R0000000  65.         
    C0000009  OBJROW     -239.         R0000000  593.        
    C0000010  OBJROW     -317.         R0000000  538.        
    C0000011  OBJROW     -727.         R0000000  631.        
    C0000012  OBJROW     -212.         R0000000  276.        
    C0000013  OBJROW     -34.          R0000000  378.        
    C0000014  OBJROW     -151.         R0000000  937.        
    C0000015  OBJROW     -63.          R0000000  217.        
    C0000016  OBJROW     -58.          R0000000  768.        
RHS
    RHS       R0000000  14144.      
BOUNDS
 BV BOUND     C0000000  1.          
 BV BOUND     C0000001  1.          
 BV BOUND     C0000002  1.          
 BV BOUND     C0000003  1.          
 BV BOUND     C0000004  1.          
 BV BOUND     C0000005  1.          
 BV BOUND     C0000006  1.          
 BV BOUND     C0000007  1.          
 BV BOUND     C0000008  1.          
 BV BOUND     C0000009  1.          
 BV BOUND     C0000010  1.          
 BV BOUND     C0000011  1.          
 BV BOUND     C0000012  1.          
 BV BOUND     C0000013  1.          
 BV BOUND     C0000014  1.          
 BV BOUND     C0000015  1.          
 BV BOUND     C0000016  1.          
ENDATA
