data/MCDM/NO_CORR/GEN_FROM_60/17_ITEMS_1000_GEN/K5017W02.KNP.txt
N 17
M 18
LC 17
LC 18
LC 19
LC 20
LC 21
LC 22
LC 23
LC 24
LC 25
LC 26
LC 27
LC 28
LC 29
LC 30
LC 31
LC 32
LC 33
LR 1
LR 2
LR 3
LR 4
LR 5
LR 6
LR 7
LR 8
LR 9
LR 10
LR 11
LR 12
LR 13
LR 14
LR 15
LR 16
LR 17
LR 18
LO -793
LO -720
LO -286
LO -540
LO -755
LO -848
LO -522
LO -225
LO -927
LO -239
LO -317
LO -727
LO -212
LO -34
LO -151
LO -63
LO -58
OS 1
IC 108
IC 315
IC 243
IC 812
IC 992
IC 429
IC 45
IC 565
IC 205
IC 699
IC 625
IC 98
IC 623
IC 47
IC 242
IC 962
IC 688
IB 3849
